l=2262;
a=2;
setup_costs=[|22,25,
|25,22,
|0,0|];
setup_times=[|20,0,
|0,2,
|0,0|];
m=5;
min_cap=[0,0,0,0,0];
max_cap=[20,20,20,20,20];

initState=[2,1,1,1,1];
s=4;
m_a_s = [|253,322,900,1232,
|0,0,249,2103,
|0,0,382,634,
|0,0,0,385,
|0,379,1713,2181|];
m_a_e = [|321,767,1167,2233,
|0,0,2051,2260,
|0,0,587,1863,
|0,0,0,2083,
|0,1397,2069,2252|];
n=25;
eligible_machine = [{4},
{1,2,3,4,5},
{4,5},
{2,4,5},
{4,2,5},
{5,3},
{2,1,4,5},
{4,2,3},
{5,3},
{1,4,5},
{1,5},
{5,1,3,4},
{3,2,4,5},
{3,2,5},
{5,2,3},
{2,3,5},
{3,1,5},
{3,2,4,5},
{3,2},
{3,4,5},
{2,1,3,4},
{1,5},
{3,1,2,5},
{5,2,3},
{3,1,4}];
earliest_start=[27,105,105,111,23,19,30,30,12,72,41,15,89,0,50,78,13,31,78,43,56,9,106,22,71];
latest_end=[57,213,458,126,139,109,109,36,210,102,220,177,146,93,228,101,208,273,140,152,169,212,173,265,460];
min_time=[19,37,77,4,49,25,73,5,61,22,50,76,31,29,51,7,67,87,23,59,27,41,35,69,89];
max_time=[100,100,100,100,100,100,100,100,100,100,100,100,100,100,100,100,100,100,100,100,100,100,100,100,100];
size=[5,4,3,8,2,4,4,7,16,5,5,18,19,20,8,17,2,7,18,1,10,6,19,12,16];
attribute=[1,2,1,1,2,1,2,1,2,2,1,2,1,1,1,2,2,2,1,2,2,1,2,1,2];

upper_bound_integer_objective=112500;
mult_factor_total_runtime=40;
mult_factor_finished_toolate=1800;
mult_factor_total_setuptimes=0;
mult_factor_total_setupcosts=36;
running_time_bound=1113;
min_duration=4;
max_duration=89;
max_setup_time=20;
max_setup_cost=25;
